
Gurobi 12.0.2 (win64) logging started Wed Dec 10 17:18:10 2025

Set parameter LogFile to value "C:\Ioana\_uni\honours\slp\algorithm\Main_files\results\arachidonic_acid_metabolism\Task_001_Sample004_irr_gurobi.log"
Gurobi Optimizer version 12.0.2 build v12.0.2rc0 (win64 - Windows 11.0 (26100.2))

CPU model: Intel(R) Core(TM) Ultra 5 125H, instruction set [SSE2|AVX|AVX2]
Thread count: 14 physical cores, 18 logical processors, using up to 18 threads

Non-default parameters:
TimeLimit  2200

Optimize a model with 47236 rows, 34511 columns and 146721 nonzeros
Model fingerprint: 0x2cafc4ab
Variable types: 17262 continuous, 17249 integer (17249 binary)
Coefficient statistics:
  Matrix range     [1e-04, 8e+04]
  Objective range  [1e-04, 9e-01]
  Bounds range     [1e+00, 1e+03]
  RHS range        [1e+00, 1e+00]
Presolve removed 30834 rows and 21555 columns
Presolve time: 0.34s
Presolved: 16402 rows, 12956 columns, 54582 nonzeros
Variable types: 6413 continuous, 6543 integer (6543 binary)

Root relaxation: objective 3.833061e-03, 3255 iterations, 0.29 seconds (0.54 work units)

    Nodes    |    Current Node    |     Objective Bounds      |     Work
 Expl Unexpl |  Obj  Depth IntInf | Incumbent    BestBd   Gap | It/Node Time

     0     0    0.00383    0   42          -    0.00383      -     -    0s
H    0     0                       4.1619858    0.00383   100%     -    0s
H    0     0                       4.1250150    0.00383   100%     -    0s
H    0     0                       4.0547207    2.64677  34.7%     -    1s
     0     0    2.64677    0   54    4.05472    2.64677  34.7%     -    1s
     0     0    2.64699    0   56    4.05472    2.64699  34.7%     -    1s
     0     0    2.65256    0   51    4.05472    2.65256  34.6%     -    2s
     0     0    3.52281    0   43    4.05472    3.52281  13.1%     -    2s
     0     0    3.52284    0   47    4.05472    3.52284  13.1%     -    2s
     0     0    3.67043    0   72    4.05472    3.67043  9.48%     -    4s
     0     0    3.67164    0   73    4.05472    3.67164  9.45%     -    4s
     0     0    3.68719    0   71    4.05472    3.68719  9.06%     -    4s
     0     0    3.68719    0   74    4.05472    3.68719  9.06%     -    4s
     0     0    3.68721    0   47    4.05472    3.68721  9.06%     -    5s
     0     0    3.68721    0   52    4.05472    3.68721  9.06%     -    5s
     0     0    3.68721    0   57    4.05472    3.68721  9.06%     -    5s
     0     0    3.68721    0   63    4.05472    3.68721  9.06%     -    6s
     0     0    3.68721    0   47    4.05472    3.68721  9.06%     -    6s
     0     0    3.68721    0   39    4.05472    3.68721  9.06%     -    6s
     0     0    3.70306    0   52    4.05472    3.70306  8.67%     -    7s
     0     0    3.72032    0   53    4.05472    3.72032  8.25%     -    7s
     0     0    3.72172    0   51    4.05472    3.72172  8.21%     -    7s
     0     0    3.72400    0   51    4.05472    3.72400  8.16%     -    7s
     0     0    3.81633    0   59    4.05472    3.81633  5.88%     -    7s
     0     0    3.81644    0   60    4.05472    3.81644  5.88%     -    7s
     0     0    3.81936    0   78    4.05472    3.81936  5.80%     -    7s
     0     0    3.82002    0   73    4.05472    3.82002  5.79%     -    7s
     0     0    3.89229    0   99    4.05472    3.89229  4.01%     -    7s
     0     0    3.90342    0  110    4.05472    3.90342  3.73%     -    7s
     0     0    3.90697    0  115    4.05472    3.90697  3.64%     -    7s
     0     0    3.90697    0  116    4.05472    3.90697  3.64%     -    7s
     0     0    3.93431    0  113    4.05472    3.93431  2.97%     -    8s
     0     0    3.93729    0  116    4.05472    3.93729  2.90%     -    8s
     0     0    3.93801    0  117    4.05472    3.93801  2.88%     -    8s
     0     0    3.93804    0  107    4.05472    3.93804  2.88%     -    8s
     0     0    3.94373    0  124    4.05472    3.94373  2.74%     -    8s
     0     0    3.94798    0  119    4.05472    3.94798  2.63%     -    9s
     0     0    3.94900    0  114    4.05472    3.94900  2.61%     -    9s
     0     0    3.94904    0  119    4.05472    3.94904  2.61%     -    9s
     0     0    3.95590    0   88    4.05472    3.95590  2.44%     -    9s
     0     0    3.95702    0  105    4.05472    3.95702  2.41%     -    9s
     0     0    3.95709    0  107    4.05472    3.95709  2.41%     -    9s
     0     0    3.96152    0  133    4.05472    3.96152  2.30%     -    9s
     0     0    3.96154    0  139    4.05472    3.96154  2.30%     -    9s
     0     0    3.96252    0  118    4.05472    3.96252  2.27%     -    9s
     0     0    3.96252    0  118    4.05472    3.96252  2.27%     -    9s
     0     0    3.96273    0  122    4.05472    3.96273  2.27%     -    9s
     0     0    3.96623    0  126    4.05472    3.96623  2.18%     -   10s
     0     0    3.96717    0  134    4.05472    3.96717  2.16%     -   10s
     0     0    3.96748    0  134    4.05472    3.96748  2.15%     -   10s
     0     0    3.96809    0  143    4.05472    3.96809  2.14%     -   10s
     0     0    3.96810    0  142    4.05472    3.96810  2.14%     -   10s
     0     0    3.97115    0  141    4.05472    3.97115  2.06%     -   10s
     0     0    3.97230    0  148    4.05472    3.97230  2.03%     -   10s
     0     0    3.97238    0  160    4.05472    3.97238  2.03%     -   11s
     0     0    3.97512    0  125    4.05472    3.97512  1.96%     -   12s
     0     0    3.97563    0  146    4.05472    3.97563  1.95%     -   12s
     0     0    3.97563    0  136    4.05472    3.97563  1.95%     -   12s
     0     0    3.97572    0  144    4.05472    3.97572  1.95%     -   12s
     0     0    3.97671    0  136    4.05472    3.97671  1.92%     -   12s
     0     0    3.97940    0  131    4.05472    3.97940  1.86%     -   12s
     0     0    3.97986    0  129    4.05472    3.97986  1.85%     -   12s
     0     0    3.97999    0  136    4.05472    3.97999  1.84%     -   12s
     0     0    3.98071    0  134    4.05472    3.98071  1.83%     -   12s
     0     0    3.98071    0  134    4.05472    3.98071  1.83%     -   12s
     0     0    3.98137    0  145    4.05472    3.98137  1.81%     -   12s
     0     0    3.98137    0  146    4.05472    3.98137  1.81%     -   12s
     0     0    3.98170    0  148    4.05472    3.98170  1.80%     -   13s
     0     0    3.98172    0  167    4.05472    3.98172  1.80%     -   13s
     0     0    3.98222    0  144    4.05472    3.98222  1.79%     -   13s
     0     0    3.98222    0  144    4.05472    3.98222  1.79%     -   13s
     0     2    3.98223    0  138    4.05472    3.98223  1.79%     -   13s
    91    14    4.03653   10   29    4.05472    4.00842  1.14%   160   15s
  1578   715    4.04162   27   15    4.05472    4.03072  0.59%  39.9   20s
  3958   294    4.05262   17    2    4.05472    4.03972  0.37%  32.3   25s

Cutting planes:
  Learned: 4
  Gomory: 1
  Cover: 38
  Implied bound: 87
  Clique: 1
  MIR: 42
  StrongCG: 5
  Flow cover: 234
  Flow path: 21
  Inf proof: 8
  Network: 120
  RLT: 3

Explored 4689 nodes (172993 simplex iterations) in 25.81 seconds (15.06 work units)
Thread count was 18 (of 18 available processors)

Solution count 3: 4.05472 4.12501 4.16199 

Optimal solution found (tolerance 1.00e-04)
Best objective 4.054720694462e+00, best bound 4.054720694462e+00, gap 0.0000%
